proyfinal/src/viki/013/experimentInOfficeAgust.take6.output/5c7f6d74-2cf9-476b-a61d-86148e4e7b34.als.dat
{'cnf.clauses': '118081',
 'cnf.totvars': '69608',
 'conflict literals': '27',
 'conflicts': '16',
 'decisions': '32341',
 'memused.mb': '17.28',
 'outcome': 'UNSAT',
 'propagations': '69158',
 'restarts': '1',
 'solver.msecs': 38,
 'task.msecs': 93}
