proyfinal/src/viki/013/experimentInOfficeAgust.take6.output/5c7f6d74-2cf9-476b-a61d-86148e4e7b34.als.out
Reading from standard input... Use '--help' for help.
============================[ Problem Statistics ]=============================
|                                                                             |
|  Number of variables:         69608                                         |
|  Number of clauses:          118081                                         |
|  Parse time:                   0.03 s                                       |
|                                                                             |
============================[ Search Statistics ]==============================
| Conflicts |          ORIGINAL         |          LEARNT          | Progress |
|           |    Vars  Clauses Literals |    Limit  Clauses Lit/Cl |          |
===============================================================================
===============================================================================
restarts              : 1
conflicts             : 16             (413 /sec)
decisions             : 32341          (0.00 % random) (835426 /sec)
propagations          : 69158          (1786474 /sec)
conflict literals     : 27             (0.00 % deleted)
Memory used           : 17.28 MB
CPU time              : 0.038712 s

UNSATISFIABLE
